(set-logic QF_LRA)
(declare-fun x0 () Real)
(declare-fun x1 () Real)
(declare-fun x2 () Real)
(declare-fun x3 () Real)
(declare-fun x4 () Real)
(declare-fun x5 () Real)
(declare-fun x6 () Real)
(declare-fun x7 () Real)
(declare-fun x8 () Real)
(declare-fun x9 () Real)
(declare-fun A0 () Bool)
(declare-fun A1 () Bool)
(declare-fun A3 () Bool)
(declare-fun A5 () Bool)
(declare-fun A6 () Bool)
(declare-fun A7 () Bool)
(assert (let ((.def_0 (not A5))) (let ((.def_1 (and A3 .def_0))) (let ((.def_2 (not A0))) (let ((.def_3 (not A1))) (let ((.def_4 (or .def_3 .def_2))) (let ((.def_5 (and .def_4 .def_1))) (let ((.def_6 (* (/ 957035040034645 4503599627370496) x0))) (let ((.def_7 (* (- (/ 2614091536630833 4503599627370496)) x4))) (let ((.def_8 (+ .def_7 .def_6))) (let ((.def_9 (< .def_8 (/ 3687534056505455 2251799813685248)))) (let ((.def_10 (= A3 .def_9))) (let ((.def_11 (not .def_10))) (let ((.def_12 (* (/ 3339456395837509 4503599627370496) x9))) (let ((.def_13 (< .def_12 (/ 869101369680547 4503599627370496)))) (let ((.def_14 (not .def_13))) (let ((.def_15 (not A7))) (let ((.def_16 (or .def_15 .def_14))) (let ((.def_17 (not .def_16))) (let ((.def_18 (and .def_17 .def_11))) (let ((.def_19 (= .def_18 .def_5))) (let ((.def_20 (not .def_19))) (let ((.def_21 (or .def_2 A5))) (let ((.def_22 (not .def_21))) (let ((.def_23 (or .def_3 A5))) (let ((.def_24 (not .def_23))) (let ((.def_25 (or .def_24 .def_22))) (let ((.def_26 (not A6))) (let ((.def_27 (* (/ 164372346886767 2251799813685248) x9))) (let ((.def_28 (< .def_27 (- (/ 1260429796267257 2251799813685248))))) (let ((.def_29 (and .def_28 .def_26))) (let ((.def_30 (and A1 A5))) (let ((.def_31 (not .def_30))) (let ((.def_32 (and .def_31 .def_29))) (let ((.def_33 (or .def_32 .def_25))) (let ((.def_34 (= .def_33 .def_20))) (let ((.def_35 (not .def_34))) (let ((.def_36 (<= x9 1.0))) (let ((.def_37 (<= 0.0 x9))) (let ((.def_38 (<= x8 1.0))) (let ((.def_39 (<= 0.0 x8))) (let ((.def_40 (<= x7 1.0))) (let ((.def_41 (<= 0.0 x7))) (let ((.def_42 (<= x6 1.0))) (let ((.def_43 (<= 0.0 x6))) (let ((.def_44 (<= x5 1.0))) (let ((.def_45 (<= 0.0 x5))) (let ((.def_46 (<= x4 1.0))) (let ((.def_47 (<= 0.0 x4))) (let ((.def_48 (<= x3 1.0))) (let ((.def_49 (<= 0.0 x3))) (let ((.def_50 (<= x2 1.0))) (let ((.def_51 (<= 0.0 x2))) (let ((.def_52 (<= x1 1.0))) (let ((.def_53 (<= 0.0 x1))) (let ((.def_54 (<= x0 1.0))) (let ((.def_55 (<= 0.0 x0))) (let ((.def_56 (and .def_55 .def_54 .def_53 .def_52 .def_51 .def_50 .def_49 .def_48 .def_47 .def_46 .def_45 .def_44 .def_43 .def_42 .def_41 .def_40 .def_39 .def_38 .def_37 .def_36 .def_35))) .def_56))))))))))))))))))))))))))))))))))))))))))))))))))))))))))
(check-sat)
